language ESSENCE' 1.0

letting R_FunctionND be
        [[1, 1, 1, 1; int(1..4)], [1, 2, 2, 2; int(1..4)], [1, 2, 3, 4; int(1..4)], [1, 2, 4, 4; int(1..4)]; int(1..4)]
$ Visualisation for R_FunctionND
$ 1 1 1 1
$ 1 2 2 2
$ 1 2 3 4
$ 1 2 4 4

letting T_FunctionND be
        [[1, 2, 3, 4; int(1..4)], [2, 2, 3, 4; int(1..4)], [3, 3, 3, 3; int(1..4)], [4, 4, 3, 4; int(1..4)]; int(1..4)]
$ Visualisation for T_FunctionND
$ 1 2 3 4
$ 2 2 3 4
$ 3 3 3 3
$ 4 4 3 4

letting e be 3
letting t be 1
